set Places := s b d ;
set Nodes := 0 1 2 3 4 5 6 7 8 9 ;
set Edges:= 0-1 0-2 0-3 0-4 0-5 0-6 0-7 1-5 1-6 1-7 2-5 2-7 2-8 2-9 3-5 3-6 4-6 4-7 4-8 4-9 5-9 6-8 6-9 7-8 ;
set Trips := 0 1 2 3 4 5 6 7 8 9 10 11 12 13 14 15 16 17 18 19 20 21 ;

param Capacity := 1;
param len := 10;
